
  22    4
  10   10   10   10

   0   0   0   0   0  10 2 3 4 5 7 8 9 10 12 15 
   6  10  10  10  10   4 20 18 13 11 
   8  10  10  10  10   2 19 6 
   2  10  10  10  10   4 20 19 14 13 
   6  10  10  10  10   4 21 18 16 14 
  10  10  10  10  10   2 18 11 
   3  10  10  10  10   2 18 11 
  10  10  10  10  10   2 19 13 
   5  10  10  10  10   2 14 13 
   1  10  10  10  10   1 11 
   8  10  10  10  10   2 16 14 
   1  10  10  10  10   2 16 14 
   1  10  10  10  10   2 17 16 
   9  10  10  10  10   1 17 
   1  10  10  10  10   1 16 
   4  10  10  10  10   1 22
   6  10  10  10  10   1 22
   1  10  10  10  10   1 22
   9  10  10  10  10   1 22
   1  10  10  10  10   1 22
   5  10  10  10  10   1 22
   0   0   0   0   0   0 
